java/UNED_experiments/models/Truck.dimacs
p cnf 33 75
c 1 Truck
c 2 Weight
c 3 Lightweight
c 4 Heavyweight
c 5 Tons12
c 6 Tons18
c 7 Tons23
c 8 Tons40
c 9 Type
c 10 Semitrailer
c 11 Tank
c 12 Flatbed
c 13 Dumper
c 14 Engine
c 15 KW160
c 16 KW280
c 17 KW400
c 18 Cabin
c 19 HighRoof
c 20 SleeperCabin
c 21 Bed1
c 22 Beds2
c 23 Axles
c 24 Count
c 25 Axles2
c 26 MultipleRearAxles
c 27 Axles3
c 28 Axles4
c 29 AdditionalSteeringAxle
c 30 Drivetrain
c 31 DrivenAxle1
c 32 DrivenAxles2
c 33 DrivenAxles3
1 0
-1 2 0
-2 1 0
-2 3 4 0
-3 -4 0
-3 2 0
-4 2 0
-3 5 6 0
-5 -6 0
-5 3 0
-6 3 0
-4 7 8 0
-7 -8 0
-7 4 0
-8 4 0
-1 9 0
-9 1 0
-9 10 11 12 0
-10 -11 0
-10 -12 0
-10 9 0
-11 -12 0
-11 9 0
-12 9 0
-12 13 0
-13 12 0
-1 14 0
-14 1 0
-14 15 16 17 0
-15 -16 0
-15 -17 0
-15 14 0
-16 -17 0
-16 14 0
-17 14 0
-1 18 0
-18 1 0
-19 18 0
-20 18 0
-20 21 22 0
-21 -22 0
-21 20 0
-22 20 0
-1 23 0
-23 1 0
-23 24 0
-24 23 0
-24 25 26 0
-25 -26 0
-25 24 0
-26 24 0
-26 27 28 0
-27 -28 0
-27 26 0
-28 26 0
-29 23 0
-23 30 0
-30 23 0
-30 31 32 33 0
-31 -32 0
-31 -33 0
-31 30 0
-32 -33 0
-32 30 0
-33 30 0
-22 19 0
-32 26 0
-33 28 0
-8 17 0
-29 28 0
-19 4 0
-10 6 0
-20 -12 0
-20 -11 0
-11 17 0