models/cnf/Truck.cnf
p cnf 33 75
c 1 Truck
c 2 Weight
c 3 Lightweight
c 4 Heavyweight
c 5 Tons12
c 6 Tons18
c 7 Tons23
c 8 Tons40
c 9 Type
c 10 Semitrailer
c 11 Tank
c 12 Flatbed
c 13 Dumper
c 14 Engine
c 15 KW160
c 16 KW280
c 17 KW400
c 18 Cabin
c 19 HighRoof
c 20 SleeperCabin
c 21 Bed1
c 22 Beds2
c 23 Axles
c 24 Count
c 25 Axles2
c 26 MultipleRearAxles
c 27 Axles3
c 28 Axles4
c 29 AdditionalSteeringAxle
c 30 Drivetrain
c 31 DrivenAxle1
c 32 DrivenAxles2
c 33 DrivenAxles3
1
-1 2
-2 1
-2 3 4
-3 -4
-3 2
-4 2
-3 5 6
-5 -6
-5 3
-6 3
-4 7 8
-7 -8
-7 4
-8 4
-1 9
-9 1
-9 10 11 12
-10 -11
-10 -12
-10 9
-11 -12
-11 9
-12 9
-12 13
-13 12
-1 14
-14 1
-14 15 16 17
-15 -16
-15 -17
-15 14
-16 -17
-16 14
-17 14
-1 18
-18 1
-19 18
-20 18
-20 21 22
-21 -22
-21 20
-22 20
-1 23
-23 1
-23 24
-24 23
-24 25 26
-25 -26
-25 24
-26 24
-26 27 28
-27 -28
-27 26
-28 26
-29 23
-23 30
-30 23
-30 31 32 33
-31 -32
-31 -33
-31 30
-32 -33
-32 30
-33 30
-22 19
-32 26
-33 28
-8 17
-29 28
-19 4
-10 6
-20 -12
-20 -11
-11 17